jobs  (incl. supersource/sink ):	52
RESOURCES
- renewable                 : 2 R
- nonrenewable              : 2 N
- doubly constrained        : 0 D
************************************************************************
PRECEDENCE RELATIONS:
jobnr.    #modes  #successors   successors
1	1	17		2 3 4 5 6 7 8 10 11 12 13 14 15 17 18 21 28 
2	9	6		43 27 22 19 16 9 
3	9	11		51 47 34 33 31 29 27 26 25 23 22 
4	9	11		50 49 48 47 46 42 35 34 33 23 20 
5	9	11		49 48 46 45 42 41 38 32 30 24 23 
6	9	10		51 50 47 45 43 33 29 26 23 19 
7	9	8		49 45 43 41 38 26 23 22 
8	9	11		50 49 48 47 46 42 41 38 33 32 23 
9	9	8		51 47 45 42 33 29 26 23 
10	9	10		49 48 47 46 44 43 42 32 31 29 
11	9	10		50 49 48 47 46 43 38 35 23 19 
12	9	7		48 47 45 42 29 23 19 
13	9	7		51 49 42 39 34 30 29 
14	9	8		50 46 44 42 40 37 36 29 
15	9	8		48 47 45 43 42 37 36 34 
16	9	7		49 48 45 42 40 39 29 
17	9	7		49 46 45 40 39 37 29 
18	9	5		43 42 40 36 32 
19	9	5		44 40 39 37 36 
20	9	5		45 43 41 39 36 
21	9	5		41 40 38 37 36 
22	9	4		50 48 42 32 
23	9	4		44 40 39 37 
24	9	4		47 43 37 36 
25	9	4		44 43 42 38 
26	9	3		46 39 36 
27	9	3		45 40 36 
28	9	3		45 41 36 
29	9	2		41 38 
30	9	2		43 36 
31	9	2		39 36 
32	9	1		37 
33	9	1		36 
34	9	1		38 
35	9	1		36 
36	9	1		52 
37	9	1		52 
38	9	1		52 
39	9	1		52 
40	9	1		52 
41	9	1		52 
42	9	1		52 
43	9	1		52 
44	9	1		52 
45	9	1		52 
46	9	1		52 
47	9	1		52 
48	9	1		52 
49	9	1		52 
50	9	1		52 
51	9	1		52 
52	1	0		
************************************************************************
REQUESTS/DURATIONS
jobnr.	mode	dur	R1	R2	N1	N2	
------------------------------------------------------------------------
1	1	0	0	0	0	0	
2	1	6	1	1	18	12	
	2	11	1	1	18	10	
	3	12	1	1	16	10	
	4	13	1	1	13	9	
	5	16	1	1	12	8	
	6	19	1	1	9	6	
	7	21	1	1	7	6	
	8	23	1	1	6	4	
	9	24	1	1	2	3	
3	1	5	2	3	19	23	
	2	7	2	2	19	20	
	3	13	2	2	17	18	
	4	15	2	2	17	17	
	5	17	2	1	16	16	
	6	21	2	1	16	14	
	7	22	2	1	14	13	
	8	28	2	1	14	10	
	9	30	2	1	13	10	
4	1	2	1	5	22	23	
	2	3	1	4	22	22	
	3	6	1	4	20	22	
	4	14	1	4	18	21	
	5	15	1	3	14	21	
	6	21	1	3	11	21	
	7	27	1	2	11	20	
	8	28	1	2	9	20	
	9	30	1	2	5	20	
5	1	1	1	5	30	6	
	2	2	1	5	29	5	
	3	3	1	5	28	4	
	4	7	1	5	27	4	
	5	10	1	5	25	4	
	6	16	1	5	25	3	
	7	17	1	5	23	3	
	8	18	1	5	23	2	
	9	28	1	5	22	2	
6	1	5	5	5	28	17	
	2	6	4	4	26	15	
	3	7	4	4	23	12	
	4	8	3	3	20	11	
	5	18	3	2	18	10	
	6	19	3	2	16	7	
	7	21	2	2	13	7	
	8	22	2	1	11	4	
	9	29	2	1	9	4	
7	1	2	3	2	11	20	
	2	5	3	2	11	19	
	3	7	3	2	10	19	
	4	8	3	2	8	17	
	5	10	3	2	8	16	
	6	14	2	1	7	17	
	7	15	2	1	6	16	
	8	20	2	1	6	15	
	9	28	2	1	5	14	
8	1	5	3	2	19	30	
	2	6	2	2	17	29	
	3	7	2	2	14	29	
	4	9	2	2	13	28	
	5	14	1	2	11	28	
	6	18	1	2	7	27	
	7	19	1	2	5	26	
	8	22	1	2	5	25	
	9	27	1	2	3	26	
9	1	2	4	5	7	27	
	2	9	3	4	7	25	
	3	10	3	4	6	25	
	4	18	3	3	5	24	
	5	19	3	3	4	24	
	6	22	3	2	3	23	
	7	23	3	1	2	23	
	8	25	3	1	2	22	
	9	29	3	1	1	22	
10	1	5	5	3	17	24	
	2	6	4	2	17	23	
	3	7	4	2	15	23	
	4	8	4	2	14	22	
	5	13	4	2	12	22	
	6	14	3	1	11	22	
	7	17	3	1	9	21	
	8	18	3	1	9	20	
	9	30	3	1	7	21	
11	1	1	5	5	28	16	
	2	5	5	4	25	16	
	3	7	5	4	22	16	
	4	13	5	4	20	16	
	5	14	5	3	18	16	
	6	18	5	3	17	16	
	7	24	5	3	13	16	
	8	27	5	2	10	16	
	9	29	5	2	8	16	
12	1	9	3	4	22	24	
	2	12	2	4	22	23	
	3	13	2	4	20	20	
	4	14	2	4	19	15	
	5	15	2	4	17	13	
	6	18	2	4	14	12	
	7	21	2	4	14	6	
	8	22	2	4	13	4	
	9	24	2	4	10	3	
13	1	1	2	4	27	25	
	2	3	2	3	27	24	
	3	11	2	3	26	22	
	4	16	2	3	26	21	
	5	19	2	3	26	20	
	6	22	1	3	25	20	
	7	28	1	3	25	19	
	8	29	1	3	24	17	
	9	30	1	3	24	16	
14	1	1	2	4	3	11	
	2	2	1	4	3	11	
	3	6	1	4	3	10	
	4	10	1	4	3	9	
	5	11	1	4	3	8	
	6	12	1	3	3	6	
	7	13	1	3	3	5	
	8	14	1	3	3	4	
	9	21	1	3	3	3	
15	1	10	4	4	29	11	
	2	15	3	4	28	12	
	3	16	3	4	28	11	
	4	17	3	4	28	10	
	5	19	3	4	27	10	
	6	23	2	4	27	10	
	7	24	2	4	27	9	
	8	25	2	4	27	8	
	9	29	2	4	27	7	
16	1	3	3	2	24	15	
	2	4	3	2	21	14	
	3	6	3	2	18	13	
	4	7	2	2	17	12	
	5	12	2	2	15	12	
	6	19	2	2	12	11	
	7	22	1	2	8	10	
	8	25	1	2	7	8	
	9	30	1	2	6	7	
17	1	2	3	4	28	17	
	2	3	2	4	28	17	
	3	8	2	4	28	13	
	4	11	2	3	28	12	
	5	12	1	3	28	10	
	6	13	1	3	28	9	
	7	19	1	2	28	7	
	8	27	1	2	28	6	
	9	29	1	2	28	3	
18	1	7	5	3	22	25	
	2	13	4	3	20	24	
	3	15	4	3	16	23	
	4	16	4	3	15	22	
	5	17	4	3	12	21	
	6	18	4	3	10	20	
	7	20	4	3	6	19	
	8	23	4	3	3	18	
	9	26	4	3	2	18	
19	1	2	4	5	22	5	
	2	3	4	4	20	4	
	3	12	4	4	19	4	
	4	16	4	4	19	3	
	5	17	4	4	17	3	
	6	20	4	3	16	3	
	7	21	4	3	14	3	
	8	22	4	3	13	3	
	9	24	4	3	13	2	
20	1	4	5	5	21	22	
	2	5	4	4	21	22	
	3	6	3	4	20	22	
	4	14	3	3	19	22	
	5	23	3	2	17	22	
	6	24	2	2	16	21	
	7	25	2	1	16	21	
	8	28	1	1	14	21	
	9	30	1	1	14	20	
21	1	2	5	3	28	23	
	2	3	5	3	28	19	
	3	6	5	3	25	18	
	4	21	5	3	24	17	
	5	25	5	3	23	12	
	6	26	5	3	22	11	
	7	27	5	3	19	9	
	8	28	5	3	17	7	
	9	29	5	3	16	3	
22	1	8	5	2	23	29	
	2	9	4	2	22	27	
	3	13	4	2	22	26	
	4	14	4	2	21	25	
	5	17	4	2	20	23	
	6	24	4	2	19	22	
	7	25	4	2	17	19	
	8	26	4	2	17	18	
	9	29	4	2	16	17	
23	1	3	1	2	19	24	
	2	9	1	2	18	23	
	3	10	1	2	16	22	
	4	19	1	2	16	21	
	5	21	1	1	14	22	
	6	24	1	1	13	21	
	7	28	1	1	12	20	
	8	29	1	1	11	20	
	9	30	1	1	10	20	
24	1	1	5	4	19	14	
	2	3	4	3	19	11	
	3	4	4	3	18	10	
	4	8	4	3	17	10	
	5	17	3	2	17	9	
	6	24	3	2	17	6	
	7	25	3	2	16	6	
	8	29	2	1	16	4	
	9	30	2	1	15	3	
25	1	3	5	2	29	30	
	2	7	4	2	26	30	
	3	8	4	2	21	30	
	4	18	4	2	18	30	
	5	20	3	2	15	30	
	6	23	3	2	13	30	
	7	24	3	2	9	30	
	8	25	2	2	7	30	
	9	27	2	2	4	30	
26	1	3	5	3	30	19	
	2	4	4	2	29	17	
	3	6	4	2	29	15	
	4	10	3	2	29	13	
	5	11	3	2	29	12	
	6	14	2	1	28	9	
	7	18	2	1	28	8	
	8	22	1	1	28	8	
	9	23	1	1	28	6	
27	1	3	4	5	19	28	
	2	6	4	4	17	27	
	3	7	4	4	16	25	
	4	8	4	4	14	23	
	5	9	3	3	13	21	
	6	15	3	3	10	18	
	7	22	3	2	8	16	
	8	28	2	2	6	16	
	9	29	2	2	5	14	
28	1	2	3	4	29	18	
	2	3	3	4	23	17	
	3	4	3	4	21	16	
	4	5	3	4	21	15	
	5	9	3	3	17	15	
	6	12	3	3	16	14	
	7	18	3	2	11	13	
	8	23	3	2	10	13	
	9	24	3	2	6	12	
29	1	1	5	5	11	30	
	2	3	5	4	10	28	
	3	4	5	4	10	27	
	4	6	5	4	10	26	
	5	7	5	4	10	25	
	6	19	5	4	10	24	
	7	27	5	4	10	23	
	8	28	5	4	10	22	
	9	29	5	4	10	21	
30	1	5	4	4	18	28	
	2	7	3	3	16	27	
	3	11	3	3	15	26	
	4	13	3	2	14	24	
	5	17	2	2	13	22	
	6	19	2	2	12	21	
	7	21	2	1	12	19	
	8	24	1	1	11	17	
	9	27	1	1	9	16	
31	1	6	4	2	20	18	
	2	7	4	1	18	17	
	3	9	4	1	18	13	
	4	10	4	1	17	12	
	5	15	3	1	16	11	
	6	16	3	1	13	10	
	7	17	2	1	12	7	
	8	20	2	1	12	6	
	9	22	2	1	11	4	
32	1	3	4	2	20	18	
	2	9	4	2	16	17	
	3	10	4	2	15	17	
	4	13	3	2	14	15	
	5	17	2	2	11	14	
	6	18	2	2	11	13	
	7	20	1	2	9	11	
	8	21	1	2	7	11	
	9	29	1	2	5	10	
33	1	2	4	4	26	21	
	2	3	3	4	26	20	
	3	4	3	4	26	19	
	4	10	3	3	25	20	
	5	20	3	3	25	19	
	6	25	3	3	25	18	
	7	26	3	3	25	17	
	8	27	3	2	24	18	
	9	28	3	2	24	17	
34	1	1	2	4	30	16	
	2	4	2	3	24	12	
	3	9	2	3	23	12	
	4	15	2	3	20	11	
	5	17	2	3	17	7	
	6	18	1	3	11	7	
	7	23	1	3	10	4	
	8	24	1	3	8	2	
	9	27	1	3	2	2	
35	1	8	5	3	18	19	
	2	9	4	3	17	19	
	3	11	4	3	15	19	
	4	13	4	3	13	18	
	5	14	4	3	12	18	
	6	16	4	3	10	17	
	7	17	4	3	8	16	
	8	25	4	3	7	16	
	9	27	4	3	4	16	
36	1	2	2	3	27	24	
	2	4	2	3	26	24	
	3	6	2	3	25	22	
	4	7	2	3	23	19	
	5	9	2	3	22	16	
	6	15	1	3	21	14	
	7	21	1	3	21	12	
	8	24	1	3	20	8	
	9	30	1	3	18	8	
37	1	2	5	3	21	24	
	2	9	4	2	18	22	
	3	14	4	2	17	21	
	4	19	4	2	15	18	
	5	20	3	2	12	15	
	6	26	3	2	12	14	
	7	27	3	2	9	13	
	8	29	2	2	8	10	
	9	30	2	2	5	7	
38	1	3	4	5	12	26	
	2	5	4	4	10	26	
	3	6	4	4	8	25	
	4	7	4	3	8	24	
	5	8	3	3	6	21	
	6	11	3	3	5	20	
	7	17	3	3	5	19	
	8	18	3	2	4	18	
	9	21	3	2	2	17	
39	1	1	1	5	21	23	
	2	2	1	4	18	21	
	3	4	1	4	18	18	
	4	9	1	3	16	16	
	5	13	1	3	15	15	
	6	14	1	2	15	13	
	7	16	1	1	13	12	
	8	17	1	1	13	10	
	9	30	1	1	11	8	
40	1	4	3	3	26	12	
	2	6	3	3	24	10	
	3	8	3	3	22	9	
	4	9	3	2	20	8	
	5	15	3	2	16	5	
	6	16	2	2	16	5	
	7	17	2	1	14	4	
	8	24	2	1	12	3	
	9	30	2	1	8	2	
41	1	2	4	3	28	16	
	2	3	4	3	27	15	
	3	6	4	3	25	15	
	4	7	4	3	24	15	
	5	8	4	3	24	14	
	6	12	4	3	23	15	
	7	20	4	3	22	15	
	8	27	4	3	20	15	
	9	29	4	3	20	14	
42	1	3	3	5	28	18	
	2	11	3	4	27	17	
	3	19	3	4	25	17	
	4	20	3	3	24	17	
	5	21	3	3	20	16	
	6	23	3	2	20	15	
	7	26	3	2	17	15	
	8	27	3	1	14	15	
	9	30	3	1	13	14	
43	1	9	4	5	15	18	
	2	10	4	4	14	15	
	3	15	4	4	14	13	
	4	16	4	4	14	12	
	5	18	4	4	13	12	
	6	20	4	4	12	9	
	7	28	4	4	12	8	
	8	29	4	4	12	7	
	9	30	4	4	11	6	
44	1	1	3	4	17	23	
	2	2	2	4	16	23	
	3	4	2	4	14	23	
	4	9	2	4	12	23	
	5	13	2	3	12	22	
	6	15	2	3	11	22	
	7	16	2	3	10	22	
	8	17	2	3	7	22	
	9	20	2	3	6	22	
45	1	6	3	4	5	13	
	2	9	3	3	4	13	
	3	11	3	3	4	12	
	4	13	3	3	4	11	
	5	14	3	3	4	10	
	6	17	2	3	3	12	
	7	23	2	3	3	11	
	8	26	2	3	3	10	
	9	27	2	3	3	9	
46	1	3	3	3	29	17	
	2	7	2	3	27	17	
	3	8	2	3	26	16	
	4	9	2	3	26	14	
	5	12	2	2	24	14	
	6	14	2	2	24	13	
	7	23	2	2	22	12	
	8	25	2	1	22	11	
	9	30	2	1	21	11	
47	1	3	4	5	18	13	
	2	7	4	4	18	13	
	3	11	4	4	17	12	
	4	14	3	4	16	11	
	5	17	3	4	15	10	
	6	22	3	3	14	8	
	7	26	2	3	12	8	
	8	27	2	3	12	7	
	9	28	2	3	11	5	
48	1	4	5	3	17	12	
	2	7	5	3	15	11	
	3	9	5	3	14	11	
	4	10	5	2	12	9	
	5	11	5	2	11	9	
	6	15	5	2	10	8	
	7	23	5	1	9	7	
	8	24	5	1	9	5	
	9	29	5	1	7	5	
49	1	3	2	3	25	23	
	2	4	2	3	23	23	
	3	5	2	3	21	22	
	4	6	2	3	19	20	
	5	7	2	3	18	20	
	6	18	2	3	17	18	
	7	22	2	3	15	17	
	8	24	2	3	14	16	
	9	25	2	3	13	16	
50	1	1	5	4	24	20	
	2	9	4	4	21	19	
	3	11	4	4	21	17	
	4	12	4	4	18	16	
	5	18	3	3	16	15	
	6	20	3	3	15	14	
	7	21	3	3	12	14	
	8	22	2	3	11	12	
	9	24	2	3	9	12	
51	1	5	4	3	15	15	
	2	6	4	2	14	15	
	3	7	3	2	13	14	
	4	11	3	2	13	13	
	5	12	2	1	12	14	
	6	13	2	1	12	13	
	7	21	1	1	11	12	
	8	29	1	1	10	12	
	9	30	1	1	10	11	
52	1	0	0	0	0	0	
************************************************************************

 RESOURCE AVAILABILITIES 
	R 1	R 2	N 1	N 2
	41	47	799	786

************************************************************************
